52 1326 52
0 1 666
0 2 281
0 3 395
0 4 291
0 5 326
0 6 640
0 7 426
0 8 600
0 9 561
0 10 1040
0 11 655
0 12 975
0 13 1120
0 14 299
0 15 260
0 16 429
0 17 161
0 18 305
0 19 210
0 20 286
0 21 46
0 22 181
0 23 274
0 24 410
0 25 728
0 26 798
0 27 707
0 28 406
0 29 360
0 30 146
0 31 90
0 32 827
0 33 135
0 34 121
0 35 125
0 36 207
0 37 240
0 38 166
0 39 208
0 40 395
0 41 565
0 42 463
0 43 154
0 44 240
0 45 279
0 46 791
0 47 267
0 48 64
0 49 217
0 50 789
0 51 1220
1 2 649
1 3 1047
1 4 945
1 5 978
1 6 45
1 7 956
1 8 1134
1 9 1132
1 10 1638
1 11 1258
1 12 1440
1 13 1515
1 14 957
1 15 724
1 16 494
1 17 595
1 18 843
1 19 564
1 20 392
1 21 636
1 22 509
1 23 921
1 24 1028
1 25 1191
1 26 1301
1 27 1243
1 28 635
1 29 390
1 30 541
1 31 730
1 32 1488
1 33 782
1 34 776
1 35 785
1 36 857
1 37 896
1 38 827
1 39 869
1 40 896
1 41 102
1 42 1123
1 43 744
1 44 823
1 45 859
1 46 1151
1 47 910
1 48 728
1 49 596
1 50 1421
1 51 1716
2 3 603
2 4 508
2 5 542
2 6 610
2 7 308
2 8 485
2 9 487
2 10 1266
2 11 891
2 12 1247
2 13 1399
2 14 504
2 15 537
2 16 217
2 17 134
2 18 207
2 19 440
2 20 288
2 21 240
2 22 361
2 23 505
2 24 652
2 25 1005
2 26 1067
2 27 970
2 28 651
2 29 504
2 30 208
2 31 245
2 32 903
2 33 393
2 34 373
2 35 367
2 36 447
2 37 462
2 38 392
2 39 426
2 40 246
2 41 550
2 42 556
2 43 434
2 44 219
2 45 552
2 46 1072
2 47 504
2 48 288
2 49 463
2 50 995
2 51 1483
3 4 104
3 5 69
3 6 1026
3 7 525
3 8 611
3 9 533
3 10 663
3 11 294
3 12 711
3 13 897
3 14 100
3 15 384
3 16 800
3 17 532
3 18 474
3 19 500
3 20 681
3 21 436
3 22 537
3 23 125
3 24 109
3 25 516
3 26 526
3 27 417
3 28 579
3 29 689
3 30 540
3 31 370
3 32 517
3 33 266
3 34 275
3 35 270
3 36 190
3 37 155
3 38 230
3 39 188
3 40 544
3 41 950
3 42 245
3 43 307
3 44 411
3 45 230
3 46 659
3 47 137
3 48 345
3 49 477
3 50 397
3 51 908
4 5 35
4 6 923
4 7 470
4 8 583
4 9 513
4 10 760
4 11 382
4 12 769
4 13 944
4 14 25
4 15 309
4 16 700
4 17 430
4 18 400
4 19 406
4 20 577
4 21 332
4 22 436
4 23 31
4 24 150
4 25 552
4 26 584
4 27 478
4 28 509
4 29 594
4 30 436
4 31 270
4 32 589
4 33 163
4 34 170
4 35 166
4 36 87
4 37 50
4 38 126
4 39 85
4 40 479
4 41 847
4 42 266
4 43 212
4 44 331
4 45 170
4 46 673
4 47 47
4 48 241
4 49 386
4 50 499
4 51 984
5 6 957
5 7 491
5 8 596
5 9 523
5 10 726
5 11 349
5 12 744
5 13 922
5 14 40
5 15 328
5 16 735
5 17 465
5 18 427
5 19 435
5 20 611
5 21 367
5 22 469
5 23 57
5 24 124
5 25 533
5 26 559
5 27 452
5 28 528
5 29 623
5 30 471
5 31 305
5 32 568
5 33 196
5 34 205
5 35 201
5 36 120
5 37 86
5 38 161
5 39 120
5 40 504
5 41 881
5 42 260
5 43 240
5 44 360
5 45 182
5 46 661
5 47 70
5 48 277
5 49 413
5 50 464
5 51 954
6 7 918
6 8 1095
6 9 1095
6 10 1627
6 11 1245
6 12 1440
6 13 1521
6 14 935
6 15 713
6 16 451
6 17 562
6 18 807
6 19 551
6 20 361
6 21 609
6 22 491
6 23 901
6 24 1012
6 25 1190
6 26 1297
6 27 1236
6 28 636
6 29 385
6 30 511
6 31 701
6 32 1459
6 33 760
6 34 754
6 35 761
6 36 836
6 37 874
6 38 804
6 39 846
6 40 857
6 41 76
6 42 1094
6 43 726
6 44 789
6 45 844
6 46 1156
6 47 890
6 48 701
6 49 584
6 50 1405
6 51 1715
7 8 183
7 9 180
7 10 1144
7 11 812
7 12 1234
7 13 1414
7 14 452
7 15 660
7 16 506
7 17 381
7 18 125
7 19 635
7 20 580
7 21 415
7 22 586
7 23 486
7 24 615
7 25 1022
7 26 1049
7 27 941
7 28 831
7 29 758
7 30 457
7 31 338
7 32 645
7 33 455
7 34 435
7 35 421
7 36 460
7 37 446
7 38 413
7 39 421
7 40 64
7 41 855
7 42 359
7 43 529
7 44 187
7 45 598
7 46 1135
7 47 495
7 48 383
7 49 643
7 50 860
7 51 1430
8 9 83
8 10 1165
8 11 873
8 12 1316
8 13 1507
8 14 561
8 15 817
8 16 670
8 17 564
8 18 308
8 19 810
8 20 763
8 21 593
8 22 766
8 23 606
8 24 714
8 25 1126
8 26 1134
8 27 1024
8 28 998
8 29 940
8 30 640
8 31 510
8 32 570
8 33 606
8 34 589
8 35 574
8 36 596
8 37 571
8 38 557
8 39 555
8 40 239
8 41 1035
8 42 389
8 43 685
8 44 360
8 45 733
8 46 1257
8 47 617
8 48 550
8 49 815
8 50 883
8 51 1486
9 10 1082
9 11 792
9 12 1236
9 13 1428
9 14 490
9 15 763
9 16 686
9 17 547
9 18 290
9 19 770
9 20 751
9 21 560
9 22 734
9 23 537
9 24 638
9 25 1049
9 26 1055
9 27 944
9 28 950
9 29 912
9 30 619
9 31 471
9 32 500
9 33 552
9 34 536
9 35 521
9 36 533
9 37 506
9 38 499
9 39 492
9 40 243
9 41 1031
9 42 307
9 43 631
9 44 329
9 45 669
9 46 1185
9 47 550
9 48 507
9 49 771
9 50 800
9 51 1404
10 11 387
10 12 442
10 13 619
10 14 762
10 15 914
10 16 1460
10 17 1190
10 18 1124
10 19 1075
10 20 1314
10 21 1085
10 22 1143
10 23 770
10 24 631
10 25 541
10 26 417
10 27 417
10 28 1042
10 29 1250
10 30 1186
10 31 1030
10 32 706
10 33 905
10 34 920
10 35 920
10 36 835
10 37 810
10 38 885
10 39 845
10 40 1180
10 41 1552
10 42 789
10 43 912
10 44 1067
10 45 786
10 46 705
10 47 775
10 48 1000
10 49 1042
10 50 285
10 51 398
11 12 452
11 13 653
11 14 388
11 15 537
11 16 1078
11 17 806
11 18 768
11 19 694
11 20 927
11 21 700
11 22 758
11 23 387
11 24 245
11 25 335
11 26 283
11 27 182
11 28 688
11 29 874
11 30 800
11 31 650
11 32 584
11 33 520
11 34 535
11 35 535
11 36 450
11 37 429
11 38 503
11 39 465
11 40 836
11 41 1169
11 42 484
11 43 526
11 44 705
11 45 401
11 46 517
11 47 391
11 48 616
11 49 662
11 50 188
11 51 618
12 13 205
12 14 784
12 15 759
12 16 1399
12 17 1136
12 18 1169
12 19 919
12 20 1194
12 21 1020
12 22 1008
12 23 759
12 24 620
12 25 254
12 26 185
12 27 293
12 28 805
12 29 1056
12 30 1103
12 31 1004
12 32 1010
12 33 854
12 34 874
12 35 881
12 36 806
12 37 804
12 38 862
12 39 836
12 40 1248
12 41 1371
12 42 930
12 43 821
12 44 1098
12 45 696
12 46 324
12 47 755
12 48 959
12 49 884
12 50 539
12 51 278
13 14 961
13 15 883
13 16 1534
13 17 1280
13 18 1340
13 19 1034
13 20 1313
13 21 1164
13 22 1127
13 23 931
13 24 799
13 25 396
13 26 374
13 27 484
13 28 887
13 29 1146
13 30 1238
13 31 1160
13 32 1215
13 33 1009
13 34 1030
13 35 1039
13 36 971
13 37 974
13 38 1026
13 39 1004
13 40 1423
13 41 1457
13 42 1125
13 43 966
13 44 1267
13 45 848
13 46 364
13 47 925
13 48 1113
13 49 1000
13 50 744
13 51 318
14 15 332
14 16 700
14 17 432
14 18 387
14 19 424
14 20 585
14 21 338
14 22 451
14 23 55
14 24 164
14 25 571
14 26 599
14 27 492
14 28 533
14 29 611
14 30 443
14 31 270
14 32 568
14 33 176
14 34 181
14 35 174
14 36 102
14 37 61
14 38 132
14 39 90
14 40 464
14 41 859
14 42 241
14 43 231
14 44 319
14 45 195
14 46 695
14 47 71
14 48 246
14 49 406
14 50 497
14 51 995
15 16 650
15 17 407
15 18 548
15 19 165
15 20 435
15 21 297
15 22 249
15 23 277
15 24 326
15 25 505
15 26 597
15 27 525
15 28 200
15 29 337
15 30 356
15 31 330
15 32 897
15 33 211
15 34 228
15 35 243
15 36 244
15 37 283
15 38 265
15 39 282
15 40 640
15 41 639
15 42 570
15 43 132
15 44 476
15 45 155
15 46 539
15 47 261
15 48 281
15 49 130
15 50 710
15 51 1022
16 17 271
16 18 421
16 19 512
16 20 253
16 21 383
16 22 418
16 23 691
16 24 834
16 25 1149
16 26 1226
16 27 1136
16 28 707
16 29 492
16 30 296
16 31 430
16 32 1120
16 33 561
16 34 544
16 35 542
16 36 627
16 37 650
16 38 575
16 39 615
16 40 442
16 41 408
16 42 773
16 43 579
16 44 436
16 45 708
16 46 1187
16 47 687
16 48 461
16 49 543
16 50 1196
16 51 1649
17 18 258
17 19 306
17 20 205
17 21 116
17 22 229
17 23 420
17 24 562
17 25 890
17 26 959
17 27 867
17 28 516
17 29 385
17 30 80
17 31 162
17 32 903
17 33 290
17 34 272
17 35 271
17 36 355
17 37 380
17 38 305
17 39 345
17 40 330
17 41 492
17 42 541
17 43 315
17 44 228
17 45 441
17 46 946
17 47 415
17 48 190
17 49 328
17 50 929
17 51 1381
18 19 512
18 20 460
18 21 290
18 22 460
18 23 410
18 24 550
18 25 945
18 26 984
18 27 879
18 28 711
18 29 632
18 30 332
18 31 219
18 32 700
18 33 350
18 34 330
18 35 317
18 36 371
18 37 366
18 38 318
18 39 336
18 40 91
18 41 741
18 42 367
18 43 420
18 44 75
18 45 504
18 46 1044
18 47 415
18 48 267
18 49 521
18 50 843
18 51 1381
19 20 278
19 21 223
19 22 94
19 23 378
19 24 467
19 25 665
19 26 761
19 27 690
19 28 210
19 29 189
19 30 236
19 31 300
19 32 990
19 33 256
19 34 261
19 35 275
19 36 322
19 37 365
19 38 313
19 39 348
19 40 601
19 41 476
19 42 638
19 43 194
19 44 450
19 45 295
19 46 679
19 47 364
19 48 263
19 49 35
19 50 859
19 51 1186
20 21 250
20 22 186
20 23 558
20 24 684
20 25 941
20 26 1030
20 27 952
20 28 459
20 29 241
20 30 150
20 31 340
20 32 1097
20 33 416
20 34 406
20 35 411
20 36 491
20 37 526
20 38 453
20 39 495
20 40 525
20 41 289
20 42 733
20 43 401
20 44 433
20 45 530
20 46 957
20 47 549
20 48 344
20 49 313
20 50 1072
20 51 1456
21 22 174
21 23 317
21 24 455
21 25 773
21 26 844
21 27 753
21 28 428
21 29 352
21 30 104
21 31 97
21 32 852
21 33 180
21 34 165
21 35 166
21 36 251
21 37 281
21 38 206
21 39 248
21 40 377
21 41 535
21 42 488
21 43 199
21 44 232
21 45 325
21 46 832
21 47 311
21 48 93
21 49 237
21 50 831
21 51 1266
22 23 412
22 24 521
22 25 754
22 26 845
22 27 770
22 28 296
22 29 179
22 30 152
22 31 267
22 32 1001
22 33 275
22 34 272
22 35 282
22 36 349
22 37 390
22 38 325
22 39 365
22 40 545
22 41 415
22 42 641
22 43 235
22 44 406
22 45 356
22 46 773
22 47 400
22 48 244
22 49 127
22 50 914
22 51 1271
23 24 147
23 25 537
23 26 575
23 27 472
23 28 478
23 29 566
23 30 420
23 31 263
23 32 620
23 33 142
23 34 152
23 35 150
23 36 66
23 37 44
23 38 115
23 39 79
23 40 491
23 41 825
23 42 297
23 43 183
23 44 338
23 45 140
23 46 652
23 47 15
23 48 230
23 49 357
23 50 514
23 51 981
24 25 412
24 26 435
24 27 328
24 28 509
24 29 654
24 30 555
24 31 408
24 32 605
24 33 275
24 34 290
24 35 291
24 36 207
24 37 191
24 38 260
24 39 226
24 40 628
24 41 936
24 42 354
24 43 286
24 44 481
24 45 173
24 46 550
24 47 148
24 48 372
24 49 439
24 50 392
24 51 835
25 26 126
25 27 158
25 28 558
25 29 805
25 30 853
25 31 765
25 32 917
25 33 614
25 34 635
25 35 643
25 36 575
25 37 580
25 38 630
25 39 609
25 40 1028
25 41 1120
25 42 755
25 43 574
25 44 872
25 45 453
25 46 185
25 47 530
25 48 718
25 49 630
25 50 496
25 51 525
26 27 110
26 28 673
26 29 912
26 30 931
26 31 823
26 32 861
26 33 674
26 34 693
26 35 700
26 36 624
26 37 620
26 38 680
26 39 652
26 40 1063
26 41 1226
26 42 751
26 43 647
26 44 913
26 45 518
26 46 291
26 47 571
26 48 779
26 49 726
26 50 410
26 51 425
27 28 629
27 29 853
27 30 844
27 31 725
27 32 766
27 33 578
27 34 597
27 35 602
27 36 523
27 37 516
27 38 579
27 39 550
27 40 956
27 41 1163
27 42 641
27 43 559
27 44 809
27 45 428
27 46 344
27 47 469
27 48 683
27 49 656
27 50 337
27 51 513
28 29 259
28 30 445
28 31 492
28 32 1095
28 33 401
28 34 415
28 35 430
28 36 443
28 37 484
28 38 458
28 39 480
28 40 801
28 41 570
28 42 770
28 43 322
28 44 643
28 45 349
28 46 522
28 47 462
28 48 448
28 49 191
28 50 871
28 51 1081
29 30 305
29 31 446
29 32 1172
29 33 439
29 34 441
29 35 453
29 36 509
29 37 551
29 38 494
29 39 531
29 40 712
29 41 315
29 42 815
29 43 382
29 44 583
29 45 481
29 46 782
29 47 553
29 48 422
29 49 215
29 50 1044
29 51 1330
30 31 190
30 32 948
30 33 281
30 34 268
30 35 270
30 36 354
30 37 385
30 38 310
30 39 353
30 40 408
30 41 438
30 42 583
30 43 285
30 44 292
30 45 415
30 46 895
30 47 413
30 48 197
30 49 262
30 50 935
30 51 1355
31 32 758
31 33 151
31 34 130
31 35 122
31 36 202
31 37 220
31 38 148
31 39 185
31 40 311
31 41 628
31 42 393
31 43 207
31 44 151
31 45 312
31 46 845
31 47 260
31 48 50
31 49 305
31 50 767
31 51 1238
32 33 734
32 34 731
32 35 720
32 36 668
32 37 625
32 38 678
32 39 642
32 40 704
32 41 1386
32 42 365
32 43 798
32 44 687
32 45 747
32 46 1095
32 47 636
32 48 763
32 49 973
32 50 474
32 51 1088
33 34 21
33 35 33
33 36 76
33 37 115
33 38 58
33 39 92
33 40 441
33 41 684
33 42 382
33 43 80
33 44 276
33 45 161
33 46 697
33 47 133
33 48 105
33 49 243
33 50 656
33 51 1092
34 35 15
34 36 86
34 37 120
34 38 53
34 39 93
34 40 421
34 41 678
34 42 376
34 43 96
34 44 255
34 45 182
34 46 718
34 47 145
34 48 85
34 49 251
34 50 667
34 51 1111
35 36 85
35 37 115
35 38 43
35 39 85
35 40 408
35 41 686
35 42 363
35 43 111
35 44 242
35 45 191
35 46 729
35 47 145
35 48 81
35 49 265
35 50 665
35 51 1116
36 37 43
36 38 55
36 39 41
36 40 457
36 41 760
36 42 327
36 43 130
36 44 297
36 45 138
36 46 676
36 47 60
36 48 165
36 49 305
36 50 581
36 51 1036
37 38 75
37 39 35
37 40 449
37 41 798
37 42 286
37 43 173
37 44 294
37 45 163
37 46 690
37 47 49
37 48 191
37 49 348
37 50 550
37 51 1026
38 39 42
38 40 407
38 41 728
38 42 324
38 43 136
38 44 244
38 45 186
38 46 726
38 47 112
38 48 115
38 49 302
38 50 626
38 51 1092
39 40 421
39 41 770
39 42 293
39 43 161
39 44 263
39 45 179
39 46 714
39 47 80
39 48 157
39 49 333
39 50 584
39 51 1060
40 41 796
40 42 401
40 43 512
40 44 165
40 45 593
40 46 1133
40 47 498
40 48 359
40 49 611
40 50 896
40 51 1453
41 42 1021
41 43 650
41 44 720
41 45 768
41 46 1092
41 47 814
41 48 627
41 49 509
41 50 1329
41 51 1645
42 43 455
42 44 336
42 45 437
42 46 904
42 47 313
42 48 399
42 49 626
42 50 504
42 51 1097
43 44 346
43 45 130
43 46 640
43 47 170
43 48 157
43 49 175
43 50 678
43 51 1070
44 45 429
44 46 969
44 47 343
44 48 196
44 49 456
44 50 790
44 51 1314
45 46 540
45 47 125
45 48 265
45 49 266
45 50 563
45 51 941
46 47 642
46 48 795
46 49 646
46 50 681
46 51 597
47 48 225
47 49 343
47 50 522
47 51 980
48 49 265
48 50 741
48 51 1196
49 50 829
49 51 1150
50 51 624
0
1
2
3
4
5
6
7
8
9
10
11
12
13
14
15
16
17
18
19
20
21
22
23
24
25
26
27
28
29
30
31
32
33
34
35
36
37
38
39
40
41
42
43
44
45
46
47
48
49
50
51
